\* Probes_Placement_Model *\
Maximize
Total_Cost: 1024 SDMC_0_10_0_0 + 27648 SDMC_0_11_0_0 + 70656 SDMC_0_12_0_0
 + 25600 SDMC_0_13_0_0 + 3072 SDMC_0_14_0_0 + 6144 SDMC_0_15_0_0
 + 19456 SDMC_0_16_0_0 + 30720 SDMC_0_17_0_0 + 15360 SDMC_0_18_0_0
 + 15360 SDMC_0_19_0_0 + 2048 SDMC_0_1_0_0 + 1024 SDMC_0_2_0_0
 + 2048 SDMC_0_3_0_0 + 1024 SDMC_0_4_0_0 + 1024 SDMC_0_5_0_0
 + 5120 SDMC_0_6_0_0 + 1024 SDMC_0_7_0_0 + 1024 SDMC_0_8_0_0
 + 2048 SDMC_0_9_0_0 + 2048 SDMC_10_11_0_0 + 5120 SDMC_10_12_0_0
 + 7168 SDMC_10_13_0_0 + 1024 SDMC_10_14_0_0 + 1024 SDMC_10_15_0_0
 + 9216 SDMC_10_16_0_0 + 2048 SDMC_10_17_0_0 + 1024 SDMC_10_18_0_0
 + 1024 SDMC_10_19_0_0 + 2048 SDMC_10_3_0_0 + 1024 SDMC_10_8_0_0
 + 8192 SDMC_11_12_0_0 + 5120 SDMC_11_13_0_0 + 1024 SDMC_11_14_0_0
 + 2048 SDMC_11_15_0_0 + 3072 SDMC_11_16_0_0 + 2048 SDMC_11_17_0_0
 + 1024 SDMC_11_18_0_0 + 19456 SDMC_11_19_0_0 + 11264 SDMC_12_13_0_0
 + 2048 SDMC_12_14_0_0 + 5120 SDMC_12_15_0_0 + 7168 SDMC_12_16_0_0
 + 34816 SDMC_12_17_0_0 + 17408 SDMC_12_18_0_0 + 18432 SDMC_12_19_0_0
 + 14336 SDMC_13_14_0_0 + 7168 SDMC_13_15_0_0 + 22528 SDMC_13_16_0_0
 + 28672 SDMC_13_17_0_0 + 14336 SDMC_13_18_0_0 + 14336 SDMC_13_19_0_0
 + 1024 SDMC_14_15_0_0 + 1024 SDMC_14_16_0_0 + 4096 SDMC_14_17_0_0
 + 2048 SDMC_14_18_0_0 + 2048 SDMC_14_19_0_0 + 6144 SDMC_15_0_0_0
 + 2048 SDMC_15_11_0_0 + 5120 SDMC_15_12_0_0 + 7168 SDMC_15_13_0_0
 + 1024 SDMC_15_16_0_0 + 2048 SDMC_15_17_0_0 + 1024 SDMC_15_18_0_0
 + 1024 SDMC_15_19_0_0 + 22528 SDMC_16_17_0_0 + 11264 SDMC_16_18_0_0
 + 11264 SDMC_16_19_0_0 + 2048 SDMC_17_15_0_0 + 18432 SDMC_17_18_0_0
 + 2048 SDMC_17_19_0_0 + 1024 SDMC_18_15_0_0 + 1024 SDMC_18_19_0_0
 + 1024 SDMC_19_15_0_0 + 10240 SDMC_1_10_0_0 + 4096 SDMC_1_11_0_0
 + 10240 SDMC_1_12_0_0 + 14336 SDMC_1_13_0_0 + 2048 SDMC_1_14_0_0
 + 2048 SDMC_1_15_0_0 + 20480 SDMC_1_16_0_0 + 4096 SDMC_1_17_0_0
 + 2048 SDMC_1_18_0_0 + 2048 SDMC_1_19_0_0 + 1024 SDMC_1_2_0_0
 + 4096 SDMC_1_3_0_0 + 1024 SDMC_1_4_0_0 + 1024 SDMC_1_5_0_0
 + 25600 SDMC_1_6_0_0 + 1024 SDMC_1_7_0_0 + 2048 SDMC_1_8_0_0
 + 3072 SDMC_1_9_0_0 + 3072 SDMC_2_10_0_0 + 2048 SDMC_2_11_0_0
 + 5120 SDMC_2_12_0_0 + 7168 SDMC_2_13_0_0 + 1024 SDMC_2_14_0_0
 + 1024 SDMC_2_15_0_0 + 12288 SDMC_2_16_0_0 + 2048 SDMC_2_17_0_0
 + 1024 SDMC_2_18_0_0 + 1024 SDMC_2_19_0_0 + 3072 SDMC_2_3_0_0
 + 1024 SDMC_2_4_0_0 + 1024 SDMC_2_5_0_0 + 1024 SDMC_2_6_0_0
 + 1024 SDMC_2_7_0_0 + 1024 SDMC_2_8_0_0 + 1024 SDMC_2_9_0_0
 + 2048 SDMC_3_10_0_0 + 4096 SDMC_3_11_0_0 + 10240 SDMC_3_12_0_0
 + 14336 SDMC_3_13_0_0 + 2048 SDMC_3_14_0_0 + 2048 SDMC_3_15_0_0
 + 20480 SDMC_3_16_0_0 + 4096 SDMC_3_17_0_0 + 2048 SDMC_3_18_0_0
 + 2048 SDMC_3_19_0_0 + 4096 SDMC_3_1_0_0 + 4096 SDMC_3_4_0_0
 + 1024 SDMC_3_5_0_0 + 22528 SDMC_3_6_0_0 + 1024 SDMC_3_7_0_0
 + 9216 SDMC_3_8_0_0 + 2048 SDMC_3_9_0_0 + 1024 SDMC_4_10_0_0
 + 2048 SDMC_4_11_0_0 + 5120 SDMC_4_12_0_0 + 7168 SDMC_4_13_0_0
 + 1024 SDMC_4_14_0_0 + 1024 SDMC_4_15_0_0 + 11264 SDMC_4_16_0_0
 + 2048 SDMC_4_17_0_0 + 1024 SDMC_4_18_0_0 + 1024 SDMC_4_19_0_0
 + 1024 SDMC_4_5_0_0 + 1024 SDMC_4_6_0_0 + 1024 SDMC_4_7_0_0
 + 1024 SDMC_4_8_0_0 + 15360 SDMC_4_9_0_0 + 1024 SDMC_5_10_0_0
 + 2048 SDMC_5_11_0_0 + 5120 SDMC_5_12_0_0 + 7168 SDMC_5_13_0_0
 + 1024 SDMC_5_14_0_0 + 1024 SDMC_5_15_0_0 + 14336 SDMC_5_16_0_0
 + 2048 SDMC_5_17_0_0 + 1024 SDMC_5_18_0_0 + 1024 SDMC_5_19_0_0
 + 3072 SDMC_5_6_0_0 + 1024 SDMC_5_7_0_0 + 1024 SDMC_5_8_0_0
 + 1024 SDMC_5_9_0_0 + 4096 SDMC_6_10_0_0 + 10240 SDMC_6_11_0_0
 + 25600 SDMC_6_12_0_0 + 35840 SDMC_6_13_0_0 + 5120 SDMC_6_14_0_0
 + 5120 SDMC_6_15_0_0 + 52224 SDMC_6_16_0_0 + 10240 SDMC_6_17_0_0
 + 5120 SDMC_6_18_0_0 + 5120 SDMC_6_19_0_0 + 3072 SDMC_6_7_0_0
 + 6144 SDMC_6_8_0_0 + 1024 SDMC_6_9_0_0 + 1024 SDMC_7_10_0_0
 + 2048 SDMC_7_11_0_0 + 5120 SDMC_7_12_0_0 + 7168 SDMC_7_13_0_0
 + 1024 SDMC_7_14_0_0 + 1024 SDMC_7_15_0_0 + 12288 SDMC_7_16_0_0
 + 2048 SDMC_7_17_0_0 + 1024 SDMC_7_18_0_0 + 1024 SDMC_7_19_0_0
 + 1024 SDMC_7_8_0_0 + 1024 SDMC_7_9_0_0 + 1024 SDMC_8_10_0_0
 + 2048 SDMC_8_11_0_0 + 5120 SDMC_8_12_0_0 + 7168 SDMC_8_13_0_0
 + 1024 SDMC_8_14_0_0 + 1024 SDMC_8_15_0_0 + 9216 SDMC_8_16_0_0
 + 2048 SDMC_8_17_0_0 + 1024 SDMC_8_18_0_0 + 1024 SDMC_8_19_0_0
 + 2048 SDMC_8_1_0_0 + 1024 SDMC_8_9_0_0 + 2048 SDMC_9_10_0_0
 + 4096 SDMC_9_11_0_0 + 10240 SDMC_9_12_0_0 + 14336 SDMC_9_13_0_0
 + 2048 SDMC_9_14_0_0 + 2048 SDMC_9_15_0_0 + 20480 SDMC_9_16_0_0
 + 4096 SDMC_9_17_0_0 + 2048 SDMC_9_18_0_0 + 2048 SDMC_9_19_0_0
Subject To
Max_Probes_Router0: SDMC_0_10_0_0 + SDMC_0_11_0_0 + SDMC_0_12_0_0
 + SDMC_0_13_0_0 + SDMC_0_14_0_0 + SDMC_0_15_0_0 + SDMC_0_16_0_0
 + SDMC_0_17_0_0 + SDMC_0_18_0_0 + SDMC_0_19_0_0 + SDMC_0_1_0_0 + SDMC_0_2_0_0
 + SDMC_0_3_0_0 + SDMC_0_4_0_0 + SDMC_0_5_0_0 + SDMC_0_6_0_0 + SDMC_0_7_0_0
 + SDMC_0_8_0_0 + SDMC_0_9_0_0 <= 2
Max_Probes_Router1: SDMC_1_0_0_0 + SDMC_1_10_0_0 + SDMC_1_11_0_0
 + SDMC_1_12_0_0 + SDMC_1_13_0_0 + SDMC_1_14_0_0 + SDMC_1_15_0_0
 + SDMC_1_16_0_0 + SDMC_1_17_0_0 + SDMC_1_18_0_0 + SDMC_1_19_0_0
 + SDMC_1_2_0_0 + SDMC_1_3_0_0 + SDMC_1_4_0_0 + SDMC_1_5_0_0 + SDMC_1_6_0_0
 + SDMC_1_7_0_0 + SDMC_1_8_0_0 + SDMC_1_9_0_0 <= 4
Max_Probes_Router10: SDMC_10_0_0_0 + SDMC_10_11_0_0 + SDMC_10_12_0_0
 + SDMC_10_13_0_0 + SDMC_10_14_0_0 + SDMC_10_15_0_0 + SDMC_10_16_0_0
 + SDMC_10_17_0_0 + SDMC_10_18_0_0 + SDMC_10_19_0_0 + SDMC_10_1_0_0
 + SDMC_10_2_0_0 + SDMC_10_3_0_0 + SDMC_10_4_0_0 + SDMC_10_5_0_0
 + SDMC_10_6_0_0 + SDMC_10_7_0_0 + SDMC_10_8_0_0 + SDMC_10_9_0_0 <= 1
Max_Probes_Router11: SDMC_11_0_0_0 + SDMC_11_10_0_0 + SDMC_11_12_0_0
 + SDMC_11_13_0_0 + SDMC_11_14_0_0 + SDMC_11_15_0_0 + SDMC_11_16_0_0
 + SDMC_11_17_0_0 + SDMC_11_18_0_0 + SDMC_11_19_0_0 + SDMC_11_1_0_0
 + SDMC_11_2_0_0 + SDMC_11_3_0_0 + SDMC_11_4_0_0 + SDMC_11_5_0_0
 + SDMC_11_6_0_0 + SDMC_11_7_0_0 + SDMC_11_8_0_0 + SDMC_11_9_0_0 <= 2
Max_Probes_Router12: SDMC_12_0_0_0 + SDMC_12_10_0_0 + SDMC_12_11_0_0
 + SDMC_12_13_0_0 + SDMC_12_14_0_0 + SDMC_12_15_0_0 + SDMC_12_16_0_0
 + SDMC_12_17_0_0 + SDMC_12_18_0_0 + SDMC_12_19_0_0 + SDMC_12_1_0_0
 + SDMC_12_2_0_0 + SDMC_12_3_0_0 + SDMC_12_4_0_0 + SDMC_12_5_0_0
 + SDMC_12_6_0_0 + SDMC_12_7_0_0 + SDMC_12_8_0_0 + SDMC_12_9_0_0 <= 3
Max_Probes_Router13: SDMC_13_0_0_0 + SDMC_13_10_0_0 + SDMC_13_11_0_0
 + SDMC_13_12_0_0 + SDMC_13_14_0_0 + SDMC_13_15_0_0 + SDMC_13_16_0_0
 + SDMC_13_17_0_0 + SDMC_13_18_0_0 + SDMC_13_19_0_0 + SDMC_13_1_0_0
 + SDMC_13_2_0_0 + SDMC_13_3_0_0 + SDMC_13_4_0_0 + SDMC_13_5_0_0
 + SDMC_13_6_0_0 + SDMC_13_7_0_0 + SDMC_13_8_0_0 + SDMC_13_9_0_0 <= 3
Max_Probes_Router14: SDMC_14_0_0_0 + SDMC_14_10_0_0 + SDMC_14_11_0_0
 + SDMC_14_12_0_0 + SDMC_14_13_0_0 + SDMC_14_15_0_0 + SDMC_14_16_0_0
 + SDMC_14_17_0_0 + SDMC_14_18_0_0 + SDMC_14_19_0_0 + SDMC_14_1_0_0
 + SDMC_14_2_0_0 + SDMC_14_3_0_0 + SDMC_14_4_0_0 + SDMC_14_5_0_0
 + SDMC_14_6_0_0 + SDMC_14_7_0_0 + SDMC_14_8_0_0 + SDMC_14_9_0_0 <= 2
Max_Probes_Router15: SDMC_15_0_0_0 + SDMC_15_10_0_0 + SDMC_15_11_0_0
 + SDMC_15_12_0_0 + SDMC_15_13_0_0 + SDMC_15_14_0_0 + SDMC_15_16_0_0
 + SDMC_15_17_0_0 + SDMC_15_18_0_0 + SDMC_15_19_0_0 + SDMC_15_1_0_0
 + SDMC_15_2_0_0 + SDMC_15_3_0_0 + SDMC_15_4_0_0 + SDMC_15_5_0_0
 + SDMC_15_6_0_0 + SDMC_15_7_0_0 + SDMC_15_8_0_0 + SDMC_15_9_0_0 <= 2
Max_Probes_Router16: SDMC_16_0_0_0 + SDMC_16_10_0_0 + SDMC_16_11_0_0
 + SDMC_16_12_0_0 + SDMC_16_13_0_0 + SDMC_16_14_0_0 + SDMC_16_15_0_0
 + SDMC_16_17_0_0 + SDMC_16_18_0_0 + SDMC_16_19_0_0 + SDMC_16_1_0_0
 + SDMC_16_2_0_0 + SDMC_16_3_0_0 + SDMC_16_4_0_0 + SDMC_16_5_0_0
 + SDMC_16_6_0_0 + SDMC_16_7_0_0 + SDMC_16_8_0_0 + SDMC_16_9_0_0 <= 7
Max_Probes_Router17: SDMC_17_0_0_0 + SDMC_17_10_0_0 + SDMC_17_11_0_0
 + SDMC_17_12_0_0 + SDMC_17_13_0_0 + SDMC_17_14_0_0 + SDMC_17_15_0_0
 + SDMC_17_16_0_0 + SDMC_17_18_0_0 + SDMC_17_19_0_0 + SDMC_17_1_0_0
 + SDMC_17_2_0_0 + SDMC_17_3_0_0 + SDMC_17_4_0_0 + SDMC_17_5_0_0
 + SDMC_17_6_0_0 + SDMC_17_7_0_0 + SDMC_17_8_0_0 + SDMC_17_9_0_0 <= 2
Max_Probes_Router18: SDMC_18_0_0_0 + SDMC_18_10_0_0 + SDMC_18_11_0_0
 + SDMC_18_12_0_0 + SDMC_18_13_0_0 + SDMC_18_14_0_0 + SDMC_18_15_0_0
 + SDMC_18_16_0_0 + SDMC_18_17_0_0 + SDMC_18_19_0_0 + SDMC_18_1_0_0
 + SDMC_18_2_0_0 + SDMC_18_3_0_0 + SDMC_18_4_0_0 + SDMC_18_5_0_0
 + SDMC_18_6_0_0 + SDMC_18_7_0_0 + SDMC_18_8_0_0 + SDMC_18_9_0_0 <= 1
Max_Probes_Router19: SDMC_19_0_0_0 + SDMC_19_10_0_0 + SDMC_19_11_0_0
 + SDMC_19_12_0_0 + SDMC_19_13_0_0 + SDMC_19_14_0_0 + SDMC_19_15_0_0
 + SDMC_19_16_0_0 + SDMC_19_17_0_0 + SDMC_19_18_0_0 + SDMC_19_1_0_0
 + SDMC_19_2_0_0 + SDMC_19_3_0_0 + SDMC_19_4_0_0 + SDMC_19_5_0_0
 + SDMC_19_6_0_0 + SDMC_19_7_0_0 + SDMC_19_8_0_0 + SDMC_19_9_0_0 <= 1
Max_Probes_Router2: SDMC_2_0_0_0 + SDMC_2_10_0_0 + SDMC_2_11_0_0
 + SDMC_2_12_0_0 + SDMC_2_13_0_0 + SDMC_2_14_0_0 + SDMC_2_15_0_0
 + SDMC_2_16_0_0 + SDMC_2_17_0_0 + SDMC_2_18_0_0 + SDMC_2_19_0_0
 + SDMC_2_1_0_0 + SDMC_2_3_0_0 + SDMC_2_4_0_0 + SDMC_2_5_0_0 + SDMC_2_6_0_0
 + SDMC_2_7_0_0 + SDMC_2_8_0_0 + SDMC_2_9_0_0 <= 3
Max_Probes_Router3: SDMC_3_0_0_0 + SDMC_3_10_0_0 + SDMC_3_11_0_0
 + SDMC_3_12_0_0 + SDMC_3_13_0_0 + SDMC_3_14_0_0 + SDMC_3_15_0_0
 + SDMC_3_16_0_0 + SDMC_3_17_0_0 + SDMC_3_18_0_0 + SDMC_3_19_0_0
 + SDMC_3_1_0_0 + SDMC_3_2_0_0 + SDMC_3_4_0_0 + SDMC_3_5_0_0 + SDMC_3_6_0_0
 + SDMC_3_7_0_0 + SDMC_3_8_0_0 + SDMC_3_9_0_0 <= 4
Max_Probes_Router4: SDMC_4_0_0_0 + SDMC_4_10_0_0 + SDMC_4_11_0_0
 + SDMC_4_12_0_0 + SDMC_4_13_0_0 + SDMC_4_14_0_0 + SDMC_4_15_0_0
 + SDMC_4_16_0_0 + SDMC_4_17_0_0 + SDMC_4_18_0_0 + SDMC_4_19_0_0
 + SDMC_4_1_0_0 + SDMC_4_2_0_0 + SDMC_4_3_0_0 + SDMC_4_5_0_0 + SDMC_4_6_0_0
 + SDMC_4_7_0_0 + SDMC_4_8_0_0 + SDMC_4_9_0_0 <= 2
Max_Probes_Router5: SDMC_5_0_0_0 + SDMC_5_10_0_0 + SDMC_5_11_0_0
 + SDMC_5_12_0_0 + SDMC_5_13_0_0 + SDMC_5_14_0_0 + SDMC_5_15_0_0
 + SDMC_5_16_0_0 + SDMC_5_17_0_0 + SDMC_5_18_0_0 + SDMC_5_19_0_0
 + SDMC_5_1_0_0 + SDMC_5_2_0_0 + SDMC_5_3_0_0 + SDMC_5_4_0_0 + SDMC_5_6_0_0
 + SDMC_5_7_0_0 + SDMC_5_8_0_0 + SDMC_5_9_0_0 <= 1
Max_Probes_Router6: SDMC_6_0_0_0 + SDMC_6_10_0_0 + SDMC_6_11_0_0
 + SDMC_6_12_0_0 + SDMC_6_13_0_0 + SDMC_6_14_0_0 + SDMC_6_15_0_0
 + SDMC_6_16_0_0 + SDMC_6_17_0_0 + SDMC_6_18_0_0 + SDMC_6_19_0_0
 + SDMC_6_1_0_0 + SDMC_6_2_0_0 + SDMC_6_3_0_0 + SDMC_6_4_0_0 + SDMC_6_5_0_0
 + SDMC_6_7_0_0 + SDMC_6_8_0_0 + SDMC_6_9_0_0 <= 3
Max_Probes_Router7: SDMC_7_0_0_0 + SDMC_7_10_0_0 + SDMC_7_11_0_0
 + SDMC_7_12_0_0 + SDMC_7_13_0_0 + SDMC_7_14_0_0 + SDMC_7_15_0_0
 + SDMC_7_16_0_0 + SDMC_7_17_0_0 + SDMC_7_18_0_0 + SDMC_7_19_0_0
 + SDMC_7_1_0_0 + SDMC_7_2_0_0 + SDMC_7_3_0_0 + SDMC_7_4_0_0 + SDMC_7_5_0_0
 + SDMC_7_6_0_0 + SDMC_7_8_0_0 + SDMC_7_9_0_0 <= 1
Max_Probes_Router8: SDMC_8_0_0_0 + SDMC_8_10_0_0 + SDMC_8_11_0_0
 + SDMC_8_12_0_0 + SDMC_8_13_0_0 + SDMC_8_14_0_0 + SDMC_8_15_0_0
 + SDMC_8_16_0_0 + SDMC_8_17_0_0 + SDMC_8_18_0_0 + SDMC_8_19_0_0
 + SDMC_8_1_0_0 + SDMC_8_2_0_0 + SDMC_8_3_0_0 + SDMC_8_4_0_0 + SDMC_8_5_0_0
 + SDMC_8_6_0_0 + SDMC_8_7_0_0 + SDMC_8_9_0_0 <= 1
Max_Probes_Router9: SDMC_9_0_0_0 + SDMC_9_10_0_0 + SDMC_9_11_0_0
 + SDMC_9_12_0_0 + SDMC_9_13_0_0 + SDMC_9_14_0_0 + SDMC_9_15_0_0
 + SDMC_9_16_0_0 + SDMC_9_17_0_0 + SDMC_9_18_0_0 + SDMC_9_19_0_0
 + SDMC_9_1_0_0 + SDMC_9_2_0_0 + SDMC_9_3_0_0 + SDMC_9_4_0_0 + SDMC_9_5_0_0
 + SDMC_9_6_0_0 + SDMC_9_7_0_0 + SDMC_9_8_0_0 <= 3
Binaries
SDMC_0_10_0_0
SDMC_0_11_0_0
SDMC_0_12_0_0
SDMC_0_13_0_0
SDMC_0_14_0_0
SDMC_0_15_0_0
SDMC_0_16_0_0
SDMC_0_17_0_0
SDMC_0_18_0_0
SDMC_0_19_0_0
SDMC_0_1_0_0
SDMC_0_2_0_0
SDMC_0_3_0_0
SDMC_0_4_0_0
SDMC_0_5_0_0
SDMC_0_6_0_0
SDMC_0_7_0_0
SDMC_0_8_0_0
SDMC_0_9_0_0
SDMC_10_0_0_0
SDMC_10_11_0_0
SDMC_10_12_0_0
SDMC_10_13_0_0
SDMC_10_14_0_0
SDMC_10_15_0_0
SDMC_10_16_0_0
SDMC_10_17_0_0
SDMC_10_18_0_0
SDMC_10_19_0_0
SDMC_10_1_0_0
SDMC_10_2_0_0
SDMC_10_3_0_0
SDMC_10_4_0_0
SDMC_10_5_0_0
SDMC_10_6_0_0
SDMC_10_7_0_0
SDMC_10_8_0_0
SDMC_10_9_0_0
SDMC_11_0_0_0
SDMC_11_10_0_0
SDMC_11_12_0_0
SDMC_11_13_0_0
SDMC_11_14_0_0
SDMC_11_15_0_0
SDMC_11_16_0_0
SDMC_11_17_0_0
SDMC_11_18_0_0
SDMC_11_19_0_0
SDMC_11_1_0_0
SDMC_11_2_0_0
SDMC_11_3_0_0
SDMC_11_4_0_0
SDMC_11_5_0_0
SDMC_11_6_0_0
SDMC_11_7_0_0
SDMC_11_8_0_0
SDMC_11_9_0_0
SDMC_12_0_0_0
SDMC_12_10_0_0
SDMC_12_11_0_0
SDMC_12_13_0_0
SDMC_12_14_0_0
SDMC_12_15_0_0
SDMC_12_16_0_0
SDMC_12_17_0_0
SDMC_12_18_0_0
SDMC_12_19_0_0
SDMC_12_1_0_0
SDMC_12_2_0_0
SDMC_12_3_0_0
SDMC_12_4_0_0
SDMC_12_5_0_0
SDMC_12_6_0_0
SDMC_12_7_0_0
SDMC_12_8_0_0
SDMC_12_9_0_0
SDMC_13_0_0_0
SDMC_13_10_0_0
SDMC_13_11_0_0
SDMC_13_12_0_0
SDMC_13_14_0_0
SDMC_13_15_0_0
SDMC_13_16_0_0
SDMC_13_17_0_0
SDMC_13_18_0_0
SDMC_13_19_0_0
SDMC_13_1_0_0
SDMC_13_2_0_0
SDMC_13_3_0_0
SDMC_13_4_0_0
SDMC_13_5_0_0
SDMC_13_6_0_0
SDMC_13_7_0_0
SDMC_13_8_0_0
SDMC_13_9_0_0
SDMC_14_0_0_0
SDMC_14_10_0_0
SDMC_14_11_0_0
SDMC_14_12_0_0
SDMC_14_13_0_0
SDMC_14_15_0_0
SDMC_14_16_0_0
SDMC_14_17_0_0
SDMC_14_18_0_0
SDMC_14_19_0_0
SDMC_14_1_0_0
SDMC_14_2_0_0
SDMC_14_3_0_0
SDMC_14_4_0_0
SDMC_14_5_0_0
SDMC_14_6_0_0
SDMC_14_7_0_0
SDMC_14_8_0_0
SDMC_14_9_0_0
SDMC_15_0_0_0
SDMC_15_10_0_0
SDMC_15_11_0_0
SDMC_15_12_0_0
SDMC_15_13_0_0
SDMC_15_14_0_0
SDMC_15_16_0_0
SDMC_15_17_0_0
SDMC_15_18_0_0
SDMC_15_19_0_0
SDMC_15_1_0_0
SDMC_15_2_0_0
SDMC_15_3_0_0
SDMC_15_4_0_0
SDMC_15_5_0_0
SDMC_15_6_0_0
SDMC_15_7_0_0
SDMC_15_8_0_0
SDMC_15_9_0_0
SDMC_16_0_0_0
SDMC_16_10_0_0
SDMC_16_11_0_0
SDMC_16_12_0_0
SDMC_16_13_0_0
SDMC_16_14_0_0
SDMC_16_15_0_0
SDMC_16_17_0_0
SDMC_16_18_0_0
SDMC_16_19_0_0
SDMC_16_1_0_0
SDMC_16_2_0_0
SDMC_16_3_0_0
SDMC_16_4_0_0
SDMC_16_5_0_0
SDMC_16_6_0_0
SDMC_16_7_0_0
SDMC_16_8_0_0
SDMC_16_9_0_0
SDMC_17_0_0_0
SDMC_17_10_0_0
SDMC_17_11_0_0
SDMC_17_12_0_0
SDMC_17_13_0_0
SDMC_17_14_0_0
SDMC_17_15_0_0
SDMC_17_16_0_0
SDMC_17_18_0_0
SDMC_17_19_0_0
SDMC_17_1_0_0
SDMC_17_2_0_0
SDMC_17_3_0_0
SDMC_17_4_0_0
SDMC_17_5_0_0
SDMC_17_6_0_0
SDMC_17_7_0_0
SDMC_17_8_0_0
SDMC_17_9_0_0
SDMC_18_0_0_0
SDMC_18_10_0_0
SDMC_18_11_0_0
SDMC_18_12_0_0
SDMC_18_13_0_0
SDMC_18_14_0_0
SDMC_18_15_0_0
SDMC_18_16_0_0
SDMC_18_17_0_0
SDMC_18_19_0_0
SDMC_18_1_0_0
SDMC_18_2_0_0
SDMC_18_3_0_0
SDMC_18_4_0_0
SDMC_18_5_0_0
SDMC_18_6_0_0
SDMC_18_7_0_0
SDMC_18_8_0_0
SDMC_18_9_0_0
SDMC_19_0_0_0
SDMC_19_10_0_0
SDMC_19_11_0_0
SDMC_19_12_0_0
SDMC_19_13_0_0
SDMC_19_14_0_0
SDMC_19_15_0_0
SDMC_19_16_0_0
SDMC_19_17_0_0
SDMC_19_18_0_0
SDMC_19_1_0_0
SDMC_19_2_0_0
SDMC_19_3_0_0
SDMC_19_4_0_0
SDMC_19_5_0_0
SDMC_19_6_0_0
SDMC_19_7_0_0
SDMC_19_8_0_0
SDMC_19_9_0_0
SDMC_1_0_0_0
SDMC_1_10_0_0
SDMC_1_11_0_0
SDMC_1_12_0_0
SDMC_1_13_0_0
SDMC_1_14_0_0
SDMC_1_15_0_0
SDMC_1_16_0_0
SDMC_1_17_0_0
SDMC_1_18_0_0
SDMC_1_19_0_0
SDMC_1_2_0_0
SDMC_1_3_0_0
SDMC_1_4_0_0
SDMC_1_5_0_0
SDMC_1_6_0_0
SDMC_1_7_0_0
SDMC_1_8_0_0
SDMC_1_9_0_0
SDMC_2_0_0_0
SDMC_2_10_0_0
SDMC_2_11_0_0
SDMC_2_12_0_0
SDMC_2_13_0_0
SDMC_2_14_0_0
SDMC_2_15_0_0
SDMC_2_16_0_0
SDMC_2_17_0_0
SDMC_2_18_0_0
SDMC_2_19_0_0
SDMC_2_1_0_0
SDMC_2_3_0_0
SDMC_2_4_0_0
SDMC_2_5_0_0
SDMC_2_6_0_0
SDMC_2_7_0_0
SDMC_2_8_0_0
SDMC_2_9_0_0
SDMC_3_0_0_0
SDMC_3_10_0_0
SDMC_3_11_0_0
SDMC_3_12_0_0
SDMC_3_13_0_0
SDMC_3_14_0_0
SDMC_3_15_0_0
SDMC_3_16_0_0
SDMC_3_17_0_0
SDMC_3_18_0_0
SDMC_3_19_0_0
SDMC_3_1_0_0
SDMC_3_2_0_0
SDMC_3_4_0_0
SDMC_3_5_0_0
SDMC_3_6_0_0
SDMC_3_7_0_0
SDMC_3_8_0_0
SDMC_3_9_0_0
SDMC_4_0_0_0
SDMC_4_10_0_0
SDMC_4_11_0_0
SDMC_4_12_0_0
SDMC_4_13_0_0
SDMC_4_14_0_0
SDMC_4_15_0_0
SDMC_4_16_0_0
SDMC_4_17_0_0
SDMC_4_18_0_0
SDMC_4_19_0_0
SDMC_4_1_0_0
SDMC_4_2_0_0
SDMC_4_3_0_0
SDMC_4_5_0_0
SDMC_4_6_0_0
SDMC_4_7_0_0
SDMC_4_8_0_0
SDMC_4_9_0_0
SDMC_5_0_0_0
SDMC_5_10_0_0
SDMC_5_11_0_0
SDMC_5_12_0_0
SDMC_5_13_0_0
SDMC_5_14_0_0
SDMC_5_15_0_0
SDMC_5_16_0_0
SDMC_5_17_0_0
SDMC_5_18_0_0
SDMC_5_19_0_0
SDMC_5_1_0_0
SDMC_5_2_0_0
SDMC_5_3_0_0
SDMC_5_4_0_0
SDMC_5_6_0_0
SDMC_5_7_0_0
SDMC_5_8_0_0
SDMC_5_9_0_0
SDMC_6_0_0_0
SDMC_6_10_0_0
SDMC_6_11_0_0
SDMC_6_12_0_0
SDMC_6_13_0_0
SDMC_6_14_0_0
SDMC_6_15_0_0
SDMC_6_16_0_0
SDMC_6_17_0_0
SDMC_6_18_0_0
SDMC_6_19_0_0
SDMC_6_1_0_0
SDMC_6_2_0_0
SDMC_6_3_0_0
SDMC_6_4_0_0
SDMC_6_5_0_0
SDMC_6_7_0_0
SDMC_6_8_0_0
SDMC_6_9_0_0
SDMC_7_0_0_0
SDMC_7_10_0_0
SDMC_7_11_0_0
SDMC_7_12_0_0
SDMC_7_13_0_0
SDMC_7_14_0_0
SDMC_7_15_0_0
SDMC_7_16_0_0
SDMC_7_17_0_0
SDMC_7_18_0_0
SDMC_7_19_0_0
SDMC_7_1_0_0
SDMC_7_2_0_0
SDMC_7_3_0_0
SDMC_7_4_0_0
SDMC_7_5_0_0
SDMC_7_6_0_0
SDMC_7_8_0_0
SDMC_7_9_0_0
SDMC_8_0_0_0
SDMC_8_10_0_0
SDMC_8_11_0_0
SDMC_8_12_0_0
SDMC_8_13_0_0
SDMC_8_14_0_0
SDMC_8_15_0_0
SDMC_8_16_0_0
SDMC_8_17_0_0
SDMC_8_18_0_0
SDMC_8_19_0_0
SDMC_8_1_0_0
SDMC_8_2_0_0
SDMC_8_3_0_0
SDMC_8_4_0_0
SDMC_8_5_0_0
SDMC_8_6_0_0
SDMC_8_7_0_0
SDMC_8_9_0_0
SDMC_9_0_0_0
SDMC_9_10_0_0
SDMC_9_11_0_0
SDMC_9_12_0_0
SDMC_9_13_0_0
SDMC_9_14_0_0
SDMC_9_15_0_0
SDMC_9_16_0_0
SDMC_9_17_0_0
SDMC_9_18_0_0
SDMC_9_19_0_0
SDMC_9_1_0_0
SDMC_9_2_0_0
SDMC_9_3_0_0
SDMC_9_4_0_0
SDMC_9_5_0_0
SDMC_9_6_0_0
SDMC_9_7_0_0
SDMC_9_8_0_0
End
